peakDumbCharging = 18500; 
Machine = anon_enum(16); 
machineSpeed = [3700,3700,3700,3700,3700,3700,3700,3700,3700,3700,3700,3700,3700,3700,3700,3700]; 
machineLoad = [3700,3700,3700,3700,3700,3700,3700,3700,3700,3700,3700,3700,3700,3700,3700,3700]; 
Car = anon_enum(21); 
demandCar = [19840,6080,12880,6080,6720,5440,8920,7280,2320,11560,3360,16520,6360,7160,29760,2040,4920,6280,10800,15280,32680]; 
arrivalCar = [78,77,76,76,76,69,67,67,67,66,63,49,48,47,47,45,45,44,39,38,37]; 
departureCar = [85,81,81,79,80,73,71,71,68,74,65,56,53,50,62,48,54,48,43,48,48]; 
